c File: flat150_3_0.col
c
c SOURCE: Joseph Culberson (joe@cs.ualberta.ca)
c DESCRIPTION: Quasi-random coloring problem
c              generated with flatness = 0
c                             probability = 0.048
c                             known coloring = 3
c                             random seed = 1086
c              Creation Date:  Wed Feb 24 10:37:50 1999
c Maximum degree = 8 Minimum degree = 1
c COLOR VERIFICATION: Using the permuted order
c under simple greedy yields the specified
c coloring number
c Color = 3 specified partitions = 3
c p edge 150 360
c cnf created by edge2cnf
p cnf 450 1680
-1 -2 0
-1 -3 0
-2 -3 0
1 2 3 0
-4 -5 0
-4 -6 0
-5 -6 0
4 5 6 0
-7 -8 0
-7 -9 0
-8 -9 0
7 8 9 0
-10 -11 0
-10 -12 0
-11 -12 0
10 11 12 0
-13 -14 0
-13 -15 0
-14 -15 0
13 14 15 0
-16 -17 0
-16 -18 0
-17 -18 0
16 17 18 0
-19 -20 0
-19 -21 0
-20 -21 0
19 20 21 0
-22 -23 0
-22 -24 0
-23 -24 0
22 23 24 0
-25 -26 0
-25 -27 0
-26 -27 0
25 26 27 0
-28 -29 0
-28 -30 0
-29 -30 0
28 29 30 0
-31 -32 0
-31 -33 0
-32 -33 0
31 32 33 0
-34 -35 0
-34 -36 0
-35 -36 0
34 35 36 0
-37 -38 0
-37 -39 0
-38 -39 0
37 38 39 0
-40 -41 0
-40 -42 0
-41 -42 0
40 41 42 0
-43 -44 0
-43 -45 0
-44 -45 0
43 44 45 0
-46 -47 0
-46 -48 0
-47 -48 0
46 47 48 0
-49 -50 0
-49 -51 0
-50 -51 0
49 50 51 0
-52 -53 0
-52 -54 0
-53 -54 0
52 53 54 0
-55 -56 0
-55 -57 0
-56 -57 0
55 56 57 0
-58 -59 0
-58 -60 0
-59 -60 0
58 59 60 0
-61 -62 0
-61 -63 0
-62 -63 0
61 62 63 0
-64 -65 0
-64 -66 0
-65 -66 0
64 65 66 0
-67 -68 0
-67 -69 0
-68 -69 0
67 68 69 0
-70 -71 0
-70 -72 0
-71 -72 0
70 71 72 0
-73 -74 0
-73 -75 0
-74 -75 0
73 74 75 0
-76 -77 0
-76 -78 0
-77 -78 0
76 77 78 0
-79 -80 0
-79 -81 0
-80 -81 0
79 80 81 0
-82 -83 0
-82 -84 0
-83 -84 0
82 83 84 0
-85 -86 0
-85 -87 0
-86 -87 0
85 86 87 0
-88 -89 0
-88 -90 0
-89 -90 0
88 89 90 0
-91 -92 0
-91 -93 0
-92 -93 0
91 92 93 0
-94 -95 0
-94 -96 0
-95 -96 0
94 95 96 0
-97 -98 0
-97 -99 0
-98 -99 0
97 98 99 0
-100 -101 0
-100 -102 0
-101 -102 0
100 101 102 0
-103 -104 0
-103 -105 0
-104 -105 0
103 104 105 0
-106 -107 0
-106 -108 0
-107 -108 0
106 107 108 0
-109 -110 0
-109 -111 0
-110 -111 0
109 110 111 0
-112 -113 0
-112 -114 0
-113 -114 0
112 113 114 0
-115 -116 0
-115 -117 0
-116 -117 0
115 116 117 0
-118 -119 0
-118 -120 0
-119 -120 0
118 119 120 0
-121 -122 0
-121 -123 0
-122 -123 0
121 122 123 0
-124 -125 0
-124 -126 0
-125 -126 0
124 125 126 0
-127 -128 0
-127 -129 0
-128 -129 0
127 128 129 0
-130 -131 0
-130 -132 0
-131 -132 0
130 131 132 0
-133 -134 0
-133 -135 0
-134 -135 0
133 134 135 0
-136 -137 0
-136 -138 0
-137 -138 0
136 137 138 0
-139 -140 0
-139 -141 0
-140 -141 0
139 140 141 0
-142 -143 0
-142 -144 0
-143 -144 0
142 143 144 0
-145 -146 0
-145 -147 0
-146 -147 0
145 146 147 0
-148 -149 0
-148 -150 0
-149 -150 0
148 149 150 0
-151 -152 0
-151 -153 0
-152 -153 0
151 152 153 0
-154 -155 0
-154 -156 0
-155 -156 0
154 155 156 0
-157 -158 0
-157 -159 0
-158 -159 0
157 158 159 0
-160 -161 0
-160 -162 0
-161 -162 0
160 161 162 0
-163 -164 0
-163 -165 0
-164 -165 0
163 164 165 0
-166 -167 0
-166 -168 0
-167 -168 0
166 167 168 0
-169 -170 0
-169 -171 0
-170 -171 0
169 170 171 0
-172 -173 0
-172 -174 0
-173 -174 0
172 173 174 0
-175 -176 0
-175 -177 0
-176 -177 0
175 176 177 0
-178 -179 0
-178 -180 0
-179 -180 0
178 179 180 0
-181 -182 0
-181 -183 0
-182 -183 0
181 182 183 0
-184 -185 0
-184 -186 0
-185 -186 0
184 185 186 0
-187 -188 0
-187 -189 0
-188 -189 0
187 188 189 0
-190 -191 0
-190 -192 0
-191 -192 0
190 191 192 0
-193 -194 0
-193 -195 0
-194 -195 0
193 194 195 0
-196 -197 0
-196 -198 0
-197 -198 0
196 197 198 0
-199 -200 0
-199 -201 0
-200 -201 0
199 200 201 0
-202 -203 0
-202 -204 0
-203 -204 0
202 203 204 0
-205 -206 0
-205 -207 0
-206 -207 0
205 206 207 0
-208 -209 0
-208 -210 0
-209 -210 0
208 209 210 0
-211 -212 0
-211 -213 0
-212 -213 0
211 212 213 0
-214 -215 0
-214 -216 0
-215 -216 0
214 215 216 0
-217 -218 0
-217 -219 0
-218 -219 0
217 218 219 0
-220 -221 0
-220 -222 0
-221 -222 0
220 221 222 0
-223 -224 0
-223 -225 0
-224 -225 0
223 224 225 0
-226 -227 0
-226 -228 0
-227 -228 0
226 227 228 0
-229 -230 0
-229 -231 0
-230 -231 0
229 230 231 0
-232 -233 0
-232 -234 0
-233 -234 0
232 233 234 0
-235 -236 0
-235 -237 0
-236 -237 0
235 236 237 0
-238 -239 0
-238 -240 0
-239 -240 0
238 239 240 0
-241 -242 0
-241 -243 0
-242 -243 0
241 242 243 0
-244 -245 0
-244 -246 0
-245 -246 0
244 245 246 0
-247 -248 0
-247 -249 0
-248 -249 0
247 248 249 0
-250 -251 0
-250 -252 0
-251 -252 0
250 251 252 0
-253 -254 0
-253 -255 0
-254 -255 0
253 254 255 0
-256 -257 0
-256 -258 0
-257 -258 0
256 257 258 0
-259 -260 0
-259 -261 0
-260 -261 0
259 260 261 0
-262 -263 0
-262 -264 0
-263 -264 0
262 263 264 0
-265 -266 0
-265 -267 0
-266 -267 0
265 266 267 0
-268 -269 0
-268 -270 0
-269 -270 0
268 269 270 0
-271 -272 0
-271 -273 0
-272 -273 0
271 272 273 0
-274 -275 0
-274 -276 0
-275 -276 0
274 275 276 0
-277 -278 0
-277 -279 0
-278 -279 0
277 278 279 0
-280 -281 0
-280 -282 0
-281 -282 0
280 281 282 0
-283 -284 0
-283 -285 0
-284 -285 0
283 284 285 0
-286 -287 0
-286 -288 0
-287 -288 0
286 287 288 0
-289 -290 0
-289 -291 0
-290 -291 0
289 290 291 0
-292 -293 0
-292 -294 0
-293 -294 0
292 293 294 0
-295 -296 0
-295 -297 0
-296 -297 0
295 296 297 0
-298 -299 0
-298 -300 0
-299 -300 0
298 299 300 0
-301 -302 0
-301 -303 0
-302 -303 0
301 302 303 0
-304 -305 0
-304 -306 0
-305 -306 0
304 305 306 0
-307 -308 0
-307 -309 0
-308 -309 0
307 308 309 0
-310 -311 0
-310 -312 0
-311 -312 0
310 311 312 0
-313 -314 0
-313 -315 0
-314 -315 0
313 314 315 0
-316 -317 0
-316 -318 0
-317 -318 0
316 317 318 0
-319 -320 0
-319 -321 0
-320 -321 0
319 320 321 0
-322 -323 0
-322 -324 0
-323 -324 0
322 323 324 0
-325 -326 0
-325 -327 0
-326 -327 0
325 326 327 0
-328 -329 0
-328 -330 0
-329 -330 0
328 329 330 0
-331 -332 0
-331 -333 0
-332 -333 0
331 332 333 0
-334 -335 0
-334 -336 0
-335 -336 0
334 335 336 0
-337 -338 0
-337 -339 0
-338 -339 0
337 338 339 0
-340 -341 0
-340 -342 0
-341 -342 0
340 341 342 0
-343 -344 0
-343 -345 0
-344 -345 0
343 344 345 0
-346 -347 0
-346 -348 0
-347 -348 0
346 347 348 0
-349 -350 0
-349 -351 0
-350 -351 0
349 350 351 0
-352 -353 0
-352 -354 0
-353 -354 0
352 353 354 0
-355 -356 0
-355 -357 0
-356 -357 0
355 356 357 0
-358 -359 0
-358 -360 0
-359 -360 0
358 359 360 0
-361 -362 0
-361 -363 0
-362 -363 0
361 362 363 0
-364 -365 0
-364 -366 0
-365 -366 0
364 365 366 0
-367 -368 0
-367 -369 0
-368 -369 0
367 368 369 0
-370 -371 0
-370 -372 0
-371 -372 0
370 371 372 0
-373 -374 0
-373 -375 0
-374 -375 0
373 374 375 0
-376 -377 0
-376 -378 0
-377 -378 0
376 377 378 0
-379 -380 0
-379 -381 0
-380 -381 0
379 380 381 0
-382 -383 0
-382 -384 0
-383 -384 0
382 383 384 0
-385 -386 0
-385 -387 0
-386 -387 0
385 386 387 0
-388 -389 0
-388 -390 0
-389 -390 0
388 389 390 0
-391 -392 0
-391 -393 0
-392 -393 0
391 392 393 0
-394 -395 0
-394 -396 0
-395 -396 0
394 395 396 0
-397 -398 0
-397 -399 0
-398 -399 0
397 398 399 0
-400 -401 0
-400 -402 0
-401 -402 0
400 401 402 0
-403 -404 0
-403 -405 0
-404 -405 0
403 404 405 0
-406 -407 0
-406 -408 0
-407 -408 0
406 407 408 0
-409 -410 0
-409 -411 0
-410 -411 0
409 410 411 0
-412 -413 0
-412 -414 0
-413 -414 0
412 413 414 0
-415 -416 0
-415 -417 0
-416 -417 0
415 416 417 0
-418 -419 0
-418 -420 0
-419 -420 0
418 419 420 0
-421 -422 0
-421 -423 0
-422 -423 0
421 422 423 0
-424 -425 0
-424 -426 0
-425 -426 0
424 425 426 0
-427 -428 0
-427 -429 0
-428 -429 0
427 428 429 0
-430 -431 0
-430 -432 0
-431 -432 0
430 431 432 0
-433 -434 0
-433 -435 0
-434 -435 0
433 434 435 0
-436 -437 0
-436 -438 0
-437 -438 0
436 437 438 0
-439 -440 0
-439 -441 0
-440 -441 0
439 440 441 0
-442 -443 0
-442 -444 0
-443 -444 0
442 443 444 0
-445 -446 0
-445 -447 0
-446 -447 0
445 446 447 0
-448 -449 0
-448 -450 0
-449 -450 0
448 449 450 0
-178 -1 0
-179 -2 0
-180 -3 0
-253 -1 0
-254 -2 0
-255 -3 0
-328 -1 0
-329 -2 0
-330 -3 0
-352 -1 0
-353 -2 0
-354 -3 0
-19 -4 0
-20 -5 0
-21 -6 0
-295 -4 0
-296 -5 0
-297 -6 0
-361 -4 0
-362 -5 0
-363 -6 0
-406 -4 0
-407 -5 0
-408 -6 0
-130 -7 0
-131 -8 0
-132 -9 0
-16 -10 0
-17 -11 0
-18 -12 0
-55 -10 0
-56 -11 0
-57 -12 0
-103 -10 0
-104 -11 0
-105 -12 0
-127 -10 0
-128 -11 0
-129 -12 0
-202 -10 0
-203 -11 0
-204 -12 0
-319 -10 0
-320 -11 0
-321 -12 0
-325 -10 0
-326 -11 0
-327 -12 0
-445 -10 0
-446 -11 0
-447 -12 0
-136 -13 0
-137 -14 0
-138 -15 0
-193 -13 0
-194 -14 0
-195 -15 0
-313 -13 0
-314 -14 0
-315 -15 0
-343 -13 0
-344 -14 0
-345 -15 0
-418 -13 0
-419 -14 0
-420 -15 0
-64 -16 0
-65 -17 0
-66 -18 0
-82 -16 0
-83 -17 0
-84 -18 0
-355 -16 0
-356 -17 0
-357 -18 0
-52 -19 0
-53 -20 0
-54 -21 0
-94 -19 0
-95 -20 0
-96 -21 0
-172 -19 0
-173 -20 0
-174 -21 0
-343 -19 0
-344 -20 0
-345 -21 0
-367 -19 0
-368 -20 0
-369 -21 0
-109 -22 0
-110 -23 0
-111 -24 0
-145 -22 0
-146 -23 0
-147 -24 0
-232 -22 0
-233 -23 0
-234 -24 0
-94 -25 0
-95 -26 0
-96 -27 0
-34 -28 0
-35 -29 0
-36 -30 0
-94 -28 0
-95 -29 0
-96 -30 0
-226 -28 0
-227 -29 0
-228 -30 0
-340 -28 0
-341 -29 0
-342 -30 0
-346 -28 0
-347 -29 0
-348 -30 0
-433 -28 0
-434 -29 0
-435 -30 0
-100 -31 0
-101 -32 0
-102 -33 0
-127 -31 0
-128 -32 0
-129 -33 0
-154 -31 0
-155 -32 0
-156 -33 0
-160 -34 0
-161 -35 0
-162 -36 0
-196 -34 0
-197 -35 0
-198 -36 0
-259 -34 0
-260 -35 0
-261 -36 0
-262 -34 0
-263 -35 0
-264 -36 0
-313 -34 0
-314 -35 0
-315 -36 0
-316 -34 0
-317 -35 0
-318 -36 0
-340 -34 0
-341 -35 0
-342 -36 0
-52 -37 0
-53 -38 0
-54 -39 0
-106 -37 0
-107 -38 0
-108 -39 0
-433 -37 0
-434 -38 0
-435 -39 0
-70 -40 0
-71 -41 0
-72 -42 0
-100 -40 0
-101 -41 0
-102 -42 0
-154 -40 0
-155 -41 0
-156 -42 0
-211 -40 0
-212 -41 0
-213 -42 0
-76 -43 0
-77 -44 0
-78 -45 0
-106 -43 0
-107 -44 0
-108 -45 0
-142 -43 0
-143 -44 0
-144 -45 0
-157 -43 0
-158 -44 0
-159 -45 0
-418 -43 0
-419 -44 0
-420 -45 0
-445 -43 0
-446 -44 0
-447 -45 0
-106 -46 0
-107 -47 0
-108 -48 0
-127 -46 0
-128 -47 0
-129 -48 0
-202 -46 0
-203 -47 0
-204 -48 0
-214 -46 0
-215 -47 0
-216 -48 0
-322 -46 0
-323 -47 0
-324 -48 0
-325 -46 0
-326 -47 0
-327 -48 0
-340 -46 0
-341 -47 0
-342 -48 0
-55 -49 0
-56 -50 0
-57 -51 0
-364 -49 0
-365 -50 0
-366 -51 0
-385 -49 0
-386 -50 0
-387 -51 0
-145 -52 0
-146 -53 0
-147 -54 0
-268 -52 0
-269 -53 0
-270 -54 0
-304 -52 0
-305 -53 0
-306 -54 0
-421 -52 0
-422 -53 0
-423 -54 0
-91 -55 0
-92 -56 0
-93 -57 0
-139 -55 0
-140 -56 0
-141 -57 0
-178 -55 0
-179 -56 0
-180 -57 0
-343 -55 0
-344 -56 0
-345 -57 0
-376 -55 0
-377 -56 0
-378 -57 0
-94 -58 0
-95 -59 0
-96 -60 0
-319 -58 0
-320 -59 0
-321 -60 0
-394 -58 0
-395 -59 0
-396 -60 0
-421 -58 0
-422 -59 0
-423 -60 0
-187 -61 0
-188 -62 0
-189 -63 0
-226 -61 0
-227 -62 0
-228 -63 0
-229 -61 0
-230 -62 0
-231 -63 0
-238 -61 0
-239 -62 0
-240 -63 0
-292 -61 0
-293 -62 0
-294 -63 0
-313 -61 0
-314 -62 0
-315 -63 0
-79 -64 0
-80 -65 0
-81 -66 0
-139 -64 0
-140 -65 0
-141 -66 0
-364 -64 0
-365 -65 0
-366 -66 0
-70 -67 0
-71 -68 0
-72 -69 0
-124 -67 0
-125 -68 0
-126 -69 0
-145 -67 0
-146 -68 0
-147 -69 0
-193 -67 0
-194 -68 0
-195 -69 0
-289 -67 0
-290 -68 0
-291 -69 0
-292 -67 0
-293 -68 0
-294 -69 0
-355 -67 0
-356 -68 0
-357 -69 0
-373 -67 0
-374 -68 0
-375 -69 0
-199 -70 0
-200 -71 0
-201 -72 0
-205 -70 0
-206 -71 0
-207 -72 0
-253 -70 0
-254 -71 0
-255 -72 0
-112 -73 0
-113 -74 0
-114 -75 0
-217 -73 0
-218 -74 0
-219 -75 0
-424 -73 0
-425 -74 0
-426 -75 0
-100 -76 0
-101 -77 0
-102 -78 0
-112 -76 0
-113 -77 0
-114 -78 0
-259 -76 0
-260 -77 0
-261 -78 0
-337 -76 0
-338 -77 0
-339 -78 0
-346 -76 0
-347 -77 0
-348 -78 0
-424 -76 0
-425 -77 0
-426 -78 0
-115 -79 0
-116 -80 0
-117 -81 0
-178 -79 0
-179 -80 0
-180 -81 0
-181 -79 0
-182 -80 0
-183 -81 0
-265 -79 0
-266 -80 0
-267 -81 0
-289 -79 0
-290 -80 0
-291 -81 0
-319 -79 0
-320 -80 0
-321 -81 0
-385 -79 0
-386 -80 0
-387 -81 0
-130 -82 0
-131 -83 0
-132 -84 0
-190 -82 0
-191 -83 0
-192 -84 0
-217 -82 0
-218 -83 0
-219 -84 0
-262 -82 0
-263 -83 0
-264 -84 0
-346 -82 0
-347 -83 0
-348 -84 0
-379 -82 0
-380 -83 0
-381 -84 0
-103 -85 0
-104 -86 0
-105 -87 0
-184 -85 0
-185 -86 0
-186 -87 0
-211 -85 0
-212 -86 0
-213 -87 0
-343 -85 0
-344 -86 0
-345 -87 0
-220 -88 0
-221 -89 0
-222 -90 0
-322 -88 0
-323 -89 0
-324 -90 0
-370 -88 0
-371 -89 0
-372 -90 0
-124 -91 0
-125 -92 0
-126 -93 0
-133 -91 0
-134 -92 0
-135 -93 0
-229 -91 0
-230 -92 0
-231 -93 0
-289 -91 0
-290 -92 0
-291 -93 0
-349 -91 0
-350 -92 0
-351 -93 0
-382 -91 0
-383 -92 0
-384 -93 0
-433 -91 0
-434 -92 0
-435 -93 0
-208 -94 0
-209 -95 0
-210 -96 0
-373 -94 0
-374 -95 0
-375 -96 0
-382 -94 0
-383 -95 0
-384 -96 0
-139 -97 0
-140 -98 0
-141 -99 0
-202 -97 0
-203 -98 0
-204 -99 0
-220 -97 0
-221 -98 0
-222 -99 0
-247 -97 0
-248 -98 0
-249 -99 0
-298 -97 0
-299 -98 0
-300 -99 0
-310 -97 0
-311 -98 0
-312 -99 0
-355 -97 0
-356 -98 0
-357 -99 0
-289 -100 0
-290 -101 0
-291 -102 0
-346 -100 0
-347 -101 0
-348 -102 0
-355 -100 0
-356 -101 0
-357 -102 0
-184 -103 0
-185 -104 0
-186 -105 0
-187 -103 0
-188 -104 0
-189 -105 0
-271 -103 0
-272 -104 0
-273 -105 0
-430 -103 0
-431 -104 0
-432 -105 0
-244 -106 0
-245 -107 0
-246 -108 0
-268 -106 0
-269 -107 0
-270 -108 0
-424 -106 0
-425 -107 0
-426 -108 0
-157 -109 0
-158 -110 0
-159 -111 0
-205 -109 0
-206 -110 0
-207 -111 0
-310 -109 0
-311 -110 0
-312 -111 0
-397 -109 0
-398 -110 0
-399 -111 0
-184 -112 0
-185 -113 0
-186 -114 0
-214 -112 0
-215 -113 0
-216 -114 0
-265 -112 0
-266 -113 0
-267 -114 0
-289 -112 0
-290 -113 0
-291 -114 0
-160 -115 0
-161 -116 0
-162 -117 0
-340 -115 0
-341 -116 0
-342 -117 0
-397 -115 0
-398 -116 0
-399 -117 0
-151 -118 0
-152 -119 0
-153 -120 0
-193 -118 0
-194 -119 0
-195 -120 0
-259 -121 0
-260 -122 0
-261 -123 0
-274 -121 0
-275 -122 0
-276 -123 0
-388 -121 0
-389 -122 0
-390 -123 0
-400 -121 0
-401 -122 0
-402 -123 0
-430 -121 0
-431 -122 0
-432 -123 0
-166 -124 0
-167 -125 0
-168 -126 0
-184 -124 0
-185 -125 0
-186 -126 0
-187 -124 0
-188 -125 0
-189 -126 0
-262 -124 0
-263 -125 0
-264 -126 0
-271 -124 0
-272 -125 0
-273 -126 0
-136 -127 0
-137 -128 0
-138 -129 0
-250 -127 0
-251 -128 0
-252 -129 0
-172 -130 0
-173 -131 0
-174 -132 0
-271 -133 0
-272 -134 0
-273 -135 0
-385 -133 0
-386 -134 0
-387 -135 0
-421 -133 0
-422 -134 0
-423 -135 0
-433 -133 0
-434 -134 0
-435 -135 0
-154 -139 0
-155 -140 0
-156 -141 0
-214 -139 0
-215 -140 0
-216 -141 0
-331 -139 0
-332 -140 0
-333 -141 0
-214 -142 0
-215 -143 0
-216 -144 0
-229 -142 0
-230 -143 0
-231 -144 0
-346 -142 0
-347 -143 0
-348 -144 0
-202 -145 0
-203 -146 0
-204 -147 0
-223 -145 0
-224 -146 0
-225 -147 0
-400 -145 0
-401 -146 0
-402 -147 0
-322 -148 0
-323 -149 0
-324 -150 0
-160 -151 0
-161 -152 0
-162 -153 0
-316 -151 0
-317 -152 0
-318 -153 0
-340 -151 0
-341 -152 0
-342 -153 0
-157 -154 0
-158 -155 0
-159 -156 0
-310 -154 0
-311 -155 0
-312 -156 0
-346 -154 0
-347 -155 0
-348 -156 0
-199 -157 0
-200 -158 0
-201 -159 0
-247 -157 0
-248 -158 0
-249 -159 0
-379 -157 0
-380 -158 0
-381 -159 0
-421 -157 0
-422 -158 0
-423 -159 0
-208 -160 0
-209 -161 0
-210 -162 0
-214 -160 0
-215 -161 0
-216 -162 0
-367 -160 0
-368 -161 0
-369 -162 0
-400 -160 0
-401 -161 0
-402 -162 0
-424 -160 0
-425 -161 0
-426 -162 0
-220 -163 0
-221 -164 0
-222 -165 0
-223 -163 0
-224 -164 0
-225 -165 0
-235 -163 0
-236 -164 0
-237 -165 0
-238 -163 0
-239 -164 0
-240 -165 0
-265 -163 0
-266 -164 0
-267 -165 0
-316 -163 0
-317 -164 0
-318 -165 0
-247 -166 0
-248 -167 0
-249 -168 0
-397 -166 0
-398 -167 0
-399 -168 0
-409 -166 0
-410 -167 0
-411 -168 0
-214 -169 0
-215 -170 0
-216 -171 0
-226 -169 0
-227 -170 0
-228 -171 0
-274 -172 0
-275 -173 0
-276 -174 0
-313 -175 0
-314 -176 0
-315 -177 0
-352 -175 0
-353 -176 0
-354 -177 0
-358 -175 0
-359 -176 0
-360 -177 0
-361 -175 0
-362 -176 0
-363 -177 0
-424 -175 0
-425 -176 0
-426 -177 0
-436 -175 0
-437 -176 0
-438 -177 0
-298 -178 0
-299 -179 0
-300 -180 0
-340 -178 0
-341 -179 0
-342 -180 0
-361 -178 0
-362 -179 0
-363 -180 0
-220 -181 0
-221 -182 0
-222 -183 0
-274 -181 0
-275 -182 0
-276 -183 0
-421 -181 0
-422 -182 0
-423 -183 0
-370 -184 0
-371 -185 0
-372 -186 0
-226 -187 0
-227 -188 0
-228 -189 0
-271 -187 0
-272 -188 0
-273 -189 0
-277 -187 0
-278 -188 0
-279 -189 0
-415 -187 0
-416 -188 0
-417 -189 0
-298 -190 0
-299 -191 0
-300 -192 0
-301 -190 0
-302 -191 0
-303 -192 0
-331 -190 0
-332 -191 0
-333 -192 0
-367 -190 0
-368 -191 0
-369 -192 0
-373 -190 0
-374 -191 0
-375 -192 0
-379 -190 0
-380 -191 0
-381 -192 0
-256 -193 0
-257 -194 0
-258 -195 0
-301 -193 0
-302 -194 0
-303 -195 0
-394 -193 0
-395 -194 0
-396 -195 0
-442 -193 0
-443 -194 0
-444 -195 0
-235 -196 0
-236 -197 0
-237 -198 0
-274 -196 0
-275 -197 0
-276 -198 0
-286 -196 0
-287 -197 0
-288 -198 0
-223 -199 0
-224 -200 0
-225 -201 0
-280 -199 0
-281 -200 0
-282 -201 0
-292 -199 0
-293 -200 0
-294 -201 0
-439 -199 0
-440 -200 0
-441 -201 0
-331 -205 0
-332 -206 0
-333 -207 0
-394 -205 0
-395 -206 0
-396 -207 0
-439 -205 0
-440 -206 0
-441 -207 0
-241 -208 0
-242 -209 0
-243 -210 0
-406 -208 0
-407 -209 0
-408 -210 0
-349 -211 0
-350 -212 0
-351 -213 0
-370 -211 0
-371 -212 0
-372 -213 0
-436 -211 0
-437 -212 0
-438 -213 0
-370 -214 0
-371 -215 0
-372 -216 0
-409 -214 0
-410 -215 0
-411 -216 0
-352 -217 0
-353 -218 0
-354 -219 0
-355 -217 0
-356 -218 0
-357 -219 0
-376 -217 0
-377 -218 0
-378 -219 0
-382 -217 0
-383 -218 0
-384 -219 0
-229 -223 0
-230 -224 0
-231 -225 0
-235 -223 0
-236 -224 0
-237 -225 0
-271 -223 0
-272 -224 0
-273 -225 0
-331 -223 0
-332 -224 0
-333 -225 0
-250 -226 0
-251 -227 0
-252 -228 0
-280 -229 0
-281 -230 0
-282 -231 0
-298 -229 0
-299 -230 0
-300 -231 0
-289 -232 0
-290 -233 0
-291 -234 0
-442 -232 0
-443 -233 0
-444 -234 0
-445 -232 0
-446 -233 0
-447 -234 0
-250 -235 0
-251 -236 0
-252 -237 0
-265 -235 0
-266 -236 0
-267 -237 0
-355 -235 0
-356 -236 0
-357 -237 0
-370 -235 0
-371 -236 0
-372 -237 0
-358 -238 0
-359 -239 0
-360 -240 0
-379 -238 0
-380 -239 0
-381 -240 0
-352 -244 0
-353 -245 0
-354 -246 0
-376 -244 0
-377 -245 0
-378 -246 0
-379 -244 0
-380 -245 0
-381 -246 0
-409 -244 0
-410 -245 0
-411 -246 0
-340 -247 0
-341 -248 0
-342 -249 0
-349 -247 0
-350 -248 0
-351 -249 0
-337 -250 0
-338 -251 0
-339 -252 0
-271 -256 0
-272 -257 0
-273 -258 0
-304 -256 0
-305 -257 0
-306 -258 0
-376 -256 0
-377 -257 0
-378 -258 0
-427 -256 0
-428 -257 0
-429 -258 0
-265 -259 0
-266 -260 0
-267 -261 0
-382 -259 0
-383 -260 0
-384 -261 0
-316 -262 0
-317 -263 0
-318 -264 0
-277 -265 0
-278 -266 0
-279 -267 0
-364 -265 0
-365 -266 0
-366 -267 0
-271 -268 0
-272 -269 0
-273 -270 0
-319 -268 0
-320 -269 0
-321 -270 0
-352 -268 0
-353 -269 0
-354 -270 0
-295 -271 0
-296 -272 0
-297 -273 0
-319 -274 0
-320 -275 0
-321 -276 0
-388 -277 0
-389 -278 0
-390 -279 0
-415 -277 0
-416 -278 0
-417 -279 0
-400 -280 0
-401 -281 0
-402 -282 0
-301 -283 0
-302 -284 0
-303 -285 0
-316 -286 0
-317 -287 0
-318 -288 0
-403 -286 0
-404 -287 0
-405 -288 0
-307 -295 0
-308 -296 0
-309 -297 0
-382 -295 0
-383 -296 0
-384 -297 0
-385 -298 0
-386 -299 0
-387 -300 0
-388 -298 0
-389 -299 0
-390 -300 0
-337 -301 0
-338 -302 0
-339 -303 0
-373 -301 0
-374 -302 0
-375 -303 0
-307 -304 0
-308 -305 0
-309 -306 0
-343 -304 0
-344 -305 0
-345 -306 0
-433 -304 0
-434 -305 0
-435 -306 0
-343 -307 0
-344 -308 0
-345 -309 0
-379 -310 0
-380 -311 0
-381 -312 0
-409 -310 0
-410 -311 0
-411 -312 0
-337 -313 0
-338 -314 0
-339 -315 0
-427 -316 0
-428 -317 0
-429 -318 0
-385 -319 0
-386 -320 0
-387 -321 0
-391 -322 0
-392 -323 0
-393 -324 0
-418 -322 0
-419 -323 0
-420 -324 0
-334 -325 0
-335 -326 0
-336 -327 0
-355 -325 0
-356 -326 0
-357 -327 0
-448 -325 0
-449 -326 0
-450 -327 0
-355 -328 0
-356 -329 0
-357 -330 0
-364 -328 0
-365 -329 0
-366 -330 0
-406 -328 0
-407 -329 0
-408 -330 0
-430 -343 0
-431 -344 0
-432 -345 0
-448 -343 0
-449 -344 0
-450 -345 0
-412 -349 0
-413 -350 0
-414 -351 0
-448 -349 0
-449 -350 0
-450 -351 0
-421 -352 0
-422 -353 0
-423 -354 0
-424 -361 0
-425 -362 0
-426 -363 0
-379 -364 0
-380 -365 0
-381 -366 0
-409 -364 0
-410 -365 0
-411 -366 0
-391 -367 0
-392 -368 0
-393 -369 0
-433 -367 0
-434 -368 0
-435 -369 0
-385 -370 0
-386 -371 0
-387 -372 0
-430 -370 0
-431 -371 0
-432 -372 0
-412 -385 0
-413 -386 0
-414 -387 0
-427 -397 0
-428 -398 0
-429 -399 0
-418 -412 0
-419 -413 0
-420 -414 0
-448 -412 0
-449 -413 0
-450 -414 0
-439 -418 0
-440 -419 0
-441 -420 0
